c
c Generated WCNF file
c
p wcnf 29 120 15864
15864 8 0
15864 -9 1 0
15864 -9 2 0
15864 9 -1 -2 0
15864 -10 1 0
15864 -10 3 0
15864 10 -1 -3 0
15864 -11 1 0
15864 -11 4 0
15864 11 -1 -4 0
15864 -12 1 0
15864 -12 5 0
15864 12 -1 -5 0
15864 -13 1 0
15864 -13 6 0
15864 13 -1 -6 0
15864 -14 1 0
15864 -14 7 0
15864 14 -1 -7 0
15864 -15 2 0
15864 -15 3 0
15864 15 -2 -3 0
15864 -16 2 0
15864 -16 4 0
15864 16 -2 -4 0
15864 -17 2 0
15864 -17 5 0
15864 17 -2 -5 0
15864 -18 2 0
15864 -18 6 0
15864 18 -2 -6 0
15864 -19 2 0
15864 -19 7 0
15864 19 -2 -7 0
15864 -20 3 0
15864 -20 4 0
15864 20 -3 -4 0
15864 -21 3 0
15864 -21 5 0
15864 21 -3 -5 0
15864 -22 3 0
15864 -22 6 0
15864 22 -3 -6 0
15864 -23 3 0
15864 -23 7 0
15864 23 -3 -7 0
15864 -24 4 0
15864 -24 5 0
15864 24 -4 -5 0
15864 -25 4 0
15864 -25 6 0
15864 25 -4 -6 0
15864 -26 4 0
15864 -26 7 0
15864 26 -4 -7 0
15864 -27 5 0
15864 -27 6 0
15864 27 -5 -6 0
15864 -28 5 0
15864 -28 7 0
15864 28 -5 -7 0
15864 -29 6 0
15864 -29 7 0
15864 29 -6 -7 0
7323 1 0
15854 -1 0
24530 9 0
15854 -9 0
6386 10 0
15854 -10 0
18326 11 0
15854 -11 0
15832 12 0
15854 -12 0
16746 13 0
15854 -13 0
17350 14 0
15854 -14 0
6204 2 0
15854 -2 0
26594 15 0
15854 -15 0
16014 16 0
15854 -16 0
17176 17 0
15854 -17 0
16408 18 0
15854 -18 0
14562 19 0
15854 -19 0
10168 3 0
15854 -3 0
17322 20 0
15854 -20 0
13280 21 0
15854 -21 0
17500 22 0
15854 -22 0
19050 23 0
15854 -23 0
16538 4 0
15854 -4 0
14580 24 0
15854 -24 0
13698 25 0
15854 -25 0
14902 26 0
15854 -26 0
23270 5 0
15854 -5 0
11876 27 0
15854 -27 0
14426 28 0
15854 -28 0
22123 6 0
15854 -6 0
13066 29 0
15854 -29 0
18982 7 0
15854 -7 0
